Minimize
	value: tt

Subject to
tt + 2000 s_1_1 > 0
tt - t_1_1 - 2000.000000 s_1_1 > -1994.845178
tt + 2000 s_2_1 > 0
tt - t_2_1 - 2000.000000 s_2_1 > -1988.491300
tt + 2000 s_1_2 > 0
tt - t_1_2 - 2000.000000 s_1_2 > -1955.069900
tt + 2000 s_2_2 > 0
tt - t_2_2 - 2000.000000 s_2_2 > -1925.078000
tt + 2000 s_1_3 > 0
tt - t_1_3 - 2000.000000 s_1_3 > -1987.545700
tt + 2000 s_2_3 > 0
tt - t_2_3 - 2000.000000 s_2_3 > -1984.334200
tt + 2000 s_1_4 > 0
tt - t_1_4 - 2000.000000 s_1_4 > -1973.279267
tt + 2000 s_2_4 > 0
tt - t_2_4 - 2000.000000 s_2_4 > -1956.403200
tt + 2000 s_1_5 > 0
tt - t_1_5 - 2038.498600 s_1_5 + 38.498600 s_1_4 > -1999.265100
tt + 2000 s_2_5 > 0
tt - t_2_5 - 2076.997200 s_2_5 + 76.997200 s_2_4 > -1998.116000
s_1_1 + s_2_1  = 1
s_1_2 + s_2_2  = 1
s_1_3 + s_2_3  = 1
s_1_4 + s_2_4  = 1
s_1_5 + s_2_5  = 1
t_1_1 - t_1_2 + 2000.000000 u_1_1_2 > 44.930100
t_1_2 - t_1_1 - 2000.000000 u_1_1_2 > -1994.845178
t_2_1 - t_2_2 + 2000.000000 u_2_1_2 > 74.922000
t_2_2 - t_2_1 - 2000.000000 u_2_1_2 > -1988.491300
t_1_1 - t_1_3 + 2000.000000 u_1_1_3 > 12.454300
t_1_3 - t_1_1 - 2000.000000 u_1_1_3 > -1994.845178
t_2_1 - t_2_3 + 2000.000000 u_2_1_3 > 15.665800
t_2_3 - t_2_1 - 2000.000000 u_2_1_3 > -1988.491300
t_1_1 - t_1_4 + 2000.000000 u_1_1_4 > 26.720733
t_1_4 - t_1_1 - 2000.000000 u_1_1_4 > -1994.845178
t_2_1 - t_2_4 + 2000.000000 u_2_1_4 > 43.596800
t_2_4 - t_2_1 - 2000.000000 u_2_1_4 > -1988.491300
t_1_5 - t_1_1 - 2000.000000 s_1_1 > -1992.345178
t_1_5 - t_2_1 - 2000.000000 s_2_1 > -1983.491300
t_2_5 - t_1_1 - 2000.000000 s_1_1 > -1992.345178
t_2_5 - t_2_1 - 2000.000000 s_2_1 > -1983.491300
t_1_2 - t_1_1 + 2000.000000 u_1_2_1 > 5.154822
t_1_1 - t_1_2 - 2000.000000 u_1_2_1 > -1955.069900
t_2_2 - t_2_1 + 2000.000000 u_2_2_1 > 11.508700
t_2_1 - t_2_2 - 2000.000000 u_2_2_1 > -1925.078000
t_1_2 - t_1_3 + 2000.000000 u_1_2_3 > 12.454300
t_1_3 - t_1_2 - 2000.000000 u_1_2_3 > -1955.069900
t_2_2 - t_2_3 + 2000.000000 u_2_2_3 > 15.665800
t_2_3 - t_2_2 - 2000.000000 u_2_2_3 > -1925.078000
t_1_2 - t_1_4 + 2000.000000 u_1_2_4 > 26.720733
t_1_4 - t_1_2 - 2000.000000 u_1_2_4 > -1955.069900
t_2_2 - t_2_4 + 2000.000000 u_2_2_4 > 43.596800
t_2_4 - t_2_2 - 2000.000000 u_2_2_4 > -1925.078000
t_1_5 - t_1_2 - 2000.000000 s_1_2 > -1952.569900
t_1_5 - t_2_2 - 2000.000000 s_2_2 > -1920.078000
t_2_5 - t_1_2 - 2000.000000 s_1_2 > -1952.569900
t_2_5 - t_2_2 - 2000.000000 s_2_2 > -1920.078000
t_1_3 - t_1_1 + 2000.000000 u_1_3_1 > 5.154822
t_1_1 - t_1_3 - 2000.000000 u_1_3_1 > -1987.545700
t_2_3 - t_2_1 + 2000.000000 u_2_3_1 > 11.508700
t_2_1 - t_2_3 - 2000.000000 u_2_3_1 > -1984.334200
t_1_3 - t_1_2 + 2000.000000 u_1_3_2 > 44.930100
t_1_2 - t_1_3 - 2000.000000 u_1_3_2 > -1987.545700
t_2_3 - t_2_2 + 2000.000000 u_2_3_2 > 74.922000
t_2_2 - t_2_3 - 2000.000000 u_2_3_2 > -1984.334200
t_1_3 - t_1_4 + 2000.000000 u_1_3_4 > 26.720733
t_1_4 - t_1_3 - 2000.000000 u_1_3_4 > -1987.545700
t_2_3 - t_2_4 + 2000.000000 u_2_3_4 > 43.596800
t_2_4 - t_2_3 - 2000.000000 u_2_3_4 > -1984.334200
t_1_5 - t_1_3 - 2000.000000 s_1_3 > -1985.045700
t_1_5 - t_2_3 - 2000.000000 s_2_3 > -1979.334200
t_2_5 - t_1_3 - 2000.000000 s_1_3 > -1985.045700
t_2_5 - t_2_3 - 2000.000000 s_2_3 > -1979.334200
t_1_4 - t_1_1 + 2000.000000 u_1_4_1 > 5.154822
t_1_1 - t_1_4 - 2000.000000 u_1_4_1 > -1973.279267
t_2_4 - t_2_1 + 2000.000000 u_2_4_1 > 11.508700
t_2_1 - t_2_4 - 2000.000000 u_2_4_1 > -1956.403200
t_1_4 - t_1_2 + 2000.000000 u_1_4_2 > 44.930100
t_1_2 - t_1_4 - 2000.000000 u_1_4_2 > -1973.279267
t_2_4 - t_2_2 + 2000.000000 u_2_4_2 > 74.922000
t_2_2 - t_2_4 - 2000.000000 u_2_4_2 > -1956.403200
t_1_4 - t_1_3 + 2000.000000 u_1_4_3 > 12.454300
t_1_3 - t_1_4 - 2000.000000 u_1_4_3 > -1973.279267
t_2_4 - t_2_3 + 2000.000000 u_2_4_3 > 15.665800
t_2_3 - t_2_4 - 2000.000000 u_2_4_3 > -1956.403200
t_1_5 - t_1_4 - 2000.000000 s_1_4 > -1970.779267
t_1_5 - t_2_4 - 2000.000000 s_2_4 > -1951.403200
t_2_5 - t_1_4 - 2000.000000 s_1_4 > -1970.779267
t_2_5 - t_2_4 - 2000.000000 s_2_4 > -1951.403200
t_1_5 - t_1_1 - 2000.000000 s_1_1 > -1992.345178
t_1_5 - t_2_1 - 2000.000000 s_2_1 > -1983.491300
t_2_5 - t_1_1 - 2000.000000 s_1_1 > -1992.345178
t_2_5 - t_2_1 - 2000.000000 s_2_1 > -1983.491300
t_1_5 - t_1_2 - 2000.000000 s_1_2 > -1952.569900
t_1_5 - t_2_2 - 2000.000000 s_2_2 > -1920.078000
t_2_5 - t_1_2 - 2000.000000 s_1_2 > -1952.569900
t_2_5 - t_2_2 - 2000.000000 s_2_2 > -1920.078000
t_1_5 - t_1_3 - 2000.000000 s_1_3 > -1985.045700
t_1_5 - t_2_3 - 2000.000000 s_2_3 > -1979.334200
t_2_5 - t_1_3 - 2000.000000 s_1_3 > -1985.045700
t_2_5 - t_2_3 - 2000.000000 s_2_3 > -1979.334200
t_1_5 - t_1_4 - 2000.000000 s_1_4 > -1970.779267
t_1_5 - t_2_4 - 2000.000000 s_2_4 > -1951.403200
t_2_5 - t_1_4 - 2000.000000 s_1_4 > -1970.779267
t_2_5 - t_2_4 - 2000.000000 s_2_4 > -1951.403200
Binary
s_1_1
s_2_1
s_1_2
s_2_2
s_1_3
s_2_3
s_1_4
s_2_4
s_1_5
s_2_5
u_1_1_2
u_2_1_2
u_1_1_3
u_2_1_3
u_1_1_4
u_2_1_4
u_1_2_1
u_2_2_1
u_1_2_3
u_2_2_3
u_1_2_4
u_2_2_4
u_1_3_1
u_2_3_1
u_1_3_2
u_2_3_2
u_1_3_4
u_2_3_4
u_1_4_1
u_2_4_1
u_1_4_2
u_2_4_2
u_1_4_3
u_2_4_3

End
